n = 28;
k = 3;
roles = [
{f, d},
{d, g},
{g, d},
{d, f},
{f, d},
{g, m},
{f, g},
{f, g},
{d, f},
{f, g},
{g, d},
{d, g},
{g, d},
{d, f},
{f, m},
{m, f},
{f, g},
{m, d},
{g, m},
{f, g},
{f, m},
{f, d},
{d, m},
{d, f},
{g, d},
{g, m},
{f, m},
{f, m}
];
num_pairs = 1;
player1 = [17];
player2 = [20];
